unsat
(define-fun f ((x (_ BitVec 64))) (_ BitVec 64) (let ((_let_1 (smol (bvadd #b0000000000000000000000000000000000000000000000000000000000000001 x)))) (im (bvand #b0000000000000000000000000000000000000000000000000000000000000001 (bvnot x)) _let_1 (im (bvand #b0000000000000000000000000000000000000000000000000000000000000001 (shesh x)) (bvnot #b0000000000000000000000000000000000000000000000000000000000000000) _let_1))))
0.87user 0.00system 0:00.87elapsed 99%CPU (0avgtext+0avgdata 35544maxresident)k
16inputs+8outputs (0major+3541minor)pagefaults 0swaps
